# Solution for model model4_UK10_11.txt
# Objective value = 1.7586934757911920e+04
x(5,6) 0
x(5,7) 0
x(5,8) 0
x(5,9) 0
x(5,10) 0
x(5,11) 0
x(5,1) 0
x(5,2) 0
x(5,3) 0
x(5,4) 0
x(5,13) 1
x(5,14) 0
x(5,15) 0
x(5,16) 0
x(5,12) 0
x(6,5) 0
x(6,7) 0
x(6,8) 0
x(6,9) 0
x(6,10) 0
x(6,11) 1
x(6,1) 0
x(6,2) 0
x(6,3) 0
x(6,4) 0
x(6,13) 0
x(6,14) 0
x(6,15) 0
x(6,16) 0
x(6,12) 0
x(7,5) 0
x(7,6) 0
x(7,8) 0
x(7,9) 0
x(7,10) 0
x(7,11) 0
x(7,1) 0
x(7,2) 3.1365074858385661e-15
x(7,3) 0
x(7,4) 0
x(7,13) 0
x(7,14) 9.9999999999999356e-01
x(7,15) 0
x(7,16) 0
x(7,12) 3.3027860569873419e-15
x(8,5) 0
x(8,6) 0
x(8,7) 0
x(8,9) 0
x(8,10) 0
x(8,11) 0
x(8,1) 0
x(8,2) 0
x(8,3) 0
x(8,4) 0
x(8,13) 0
x(8,14) 0
x(8,15) 9.7699626167013776e-15
x(8,16) 0
x(8,12) 9.9999999999999023e-01
x(9,5) 0
x(9,6) 0
x(9,7) 0
x(9,8) 0
x(9,10) 0
x(9,11) 0
x(9,1) 0
x(9,2) 0
x(9,3) 0
x(9,4) 0
x(9,13) 0
x(9,14) 0
x(9,15) 0
x(9,16) 0
x(9,12) 1
x(10,5) 0
x(10,6) 0
x(10,7) 0
x(10,8) 0
x(10,9) 0
x(10,11) 0
x(10,1) 0
x(10,2) 0
x(10,3) -6.4392935428259079e-15
x(10,4) 0
x(10,13) 0
x(10,14) 6.4392935428259079e-15
x(10,15) 1
x(10,16) 0
x(10,12) 0
x(11,5) 0
x(11,6) 0
x(11,7) 0
x(11,8) 0
x(11,9) 0
x(11,10) 0
x(11,1) 1
x(11,2) 0
x(11,3) 0
x(11,4) 0
x(11,13) 0
x(11,14) 0
x(11,15) 0
x(11,16) 0
x(11,12) 0
x(1,5) 1
x(1,6) 0
x(1,7) 0
x(1,8) 0
x(1,9) 0
x(1,10) 0
x(1,11) 0
x(1,2) 0
x(1,3) 0
x(1,4) 0
x(1,13) 0
x(1,14) 0
x(1,15) 0
x(1,16) 0
x(1,12) 0
x(2,5) 0
x(2,6) 0
x(2,7) 0
x(2,8) 0
x(2,9) 0
x(2,10) 0
x(2,11) 0
x(2,1) 0
x(2,3) 0
x(2,4) 0
x(2,13) 0
x(2,14) 0
x(2,15) 3.1365074858385661e-15
x(2,16) 0
x(2,12) 0
x(3,5) 0
x(3,6) 0
x(3,7) 0
x(3,8) 1
x(3,9) 0
x(3,10) 0
x(3,11) 0
x(3,1) 0
x(3,2) 0
x(3,4) 0
x(3,13) 0
x(3,14) 0
x(3,15) 0
x(3,16) 0
x(3,12) 0
x(4,5) 0
x(4,6) 0
x(4,7) 0
x(4,8) 0
x(4,9) 0
x(4,10) 0
x(4,11) 0
x(4,1) 0
x(4,2) 0
x(4,3) 0
x(4,13) 0
x(4,14) 0
x(4,15) 0
x(4,16) 0
x(4,12) 0
x(13,5) 0
x(13,6) 0
x(13,7) 0
x(13,8) 0
x(13,9) 1
x(13,10) 0
x(13,11) 0
x(13,1) 0
x(13,2) 0
x(13,3) 0
x(13,4) 0
x(13,14) 0
x(13,15) 0
x(13,16) 0
x(13,12) 0
x(14,5) 0
x(14,6) 0
x(14,7) 6.4392935428259079e-15
x(14,8) 0
x(14,9) 0
x(14,10) 9.9999999999999356e-01
x(14,11) 0
x(14,1) 0
x(14,2) 0
x(14,3) 0
x(14,4) 0
x(14,13) 0
x(14,15) 0
x(14,16) 0
x(14,12) 0
x(15,5) 0
x(15,6) 0
x(15,7) 0
x(15,8) 0
x(15,9) 0
x(15,10) 6.4671765597140357e-15
x(15,11) 0
x(15,1) 0
x(15,2) 0
x(15,3) 1.0000000000000064e+00
x(15,4) 0
x(15,13) 0
x(15,14) 0
x(15,16) 0
x(15,12) 0
x(16,5) 0
x(16,6) 0
x(16,7) 0
x(16,8) 0
x(16,9) 0
x(16,10) 0
x(16,11) 0
x(16,1) 0
x(16,2) 0
x(16,3) 0
x(16,4) 0
x(16,13) 0
x(16,14) 0
x(16,15) 0
x(16,12) 0
x(0,5) 0
x(0,6) 1
x(0,7) 9.9999999999999356e-01
x(0,8) 0
x(0,9) 0
x(0,10) 0
x(0,11) 0
x(0,1) 0
x(0,2) 0
x(0,3) 0
x(0,4) 0
x(0,13) 0
x(0,14) 0
x(0,15) 0
x(0,16) 0
x(0,12) 0
y(5) 1
y(6) 1
y(7) 1
y(8) 1
y(9) 1
y(10) 1
y(11) 1
y(1) 1
y(2) 1
y(3) 1
y(4) 0
t(5) 13166
t(6) 4683
t(7) 3.2739999999999936e+03
t(8) 21631
t(9) 23564
t(10) 8.8849999999997890e+03
t(11) 6504
t(1) 9419
t(2) 3.2399999999999985e+04
t(3) 19416
t(4) 0
t(13) 20008
t(14) 5.1909999999999027e+03
t(15) 1.2512999999999831e+04
t(16) 0
t(0) 0
t(12) 32400
d(5) 1227
d(6) 2254
d(7) 3650
d(8) 240
d(9) 447
d(10) 3.5420000000000477e+03
d(11) 1834
d(1) 1227
d(2) 0
d(3) 240
d(4) 0
d(13) 447
d(14) 3.5420000000000241e+03
d(15) 2.4000000000002365e+02
d(16) 0
d(0) 3650
d(12) 0
q(5) 82340
q(6) 76150
q(7) 7.9150000000000262e+04
q(8) 120630
q(9) 87110
q(10) 8.3670000000000131e+04
q(11) 51630
q(1) 9120
q(2) 1.6099999999999977e+05
q(3) 1.6100000000000076e+05
q(4) 0
q(13) 0
q(14) 0
q(15) 0
q(16) 0
q(0) 161000
q(12) 0
u(5) 1
u(6) 1
u(7) 9.9999999999999689e-01
u(8) 9.9999999999999023e-01
u(9) 1
u(10) 1.0000000025029196e+00
u(11) 1
u(1) 1
u(2) 386814
u(3) 9.9999999999999023e-01
u(4) 0
u(13) 1
u(14) 1.0000000025029230e+00
u(15) 1.0000000025029196e+00
u(16) 386814
u(12) 1
w(5) 0
w(6) 0
w(7) 0
w(8) 0
w(9) 0
w(10) 0
w(11) 0
z(0) 1
v(1) 151880
v(2) 2.3283064365386963e-10
v(3) -7.5669959187507629e-10
v(4) 0
v(13) 0
v(14) 0
v(15) 0
v(16) 0
depotCost 6301.36962890625
bssCost 2.0547944641113281e+02
vehicleFixedCost 1.9178081512451108e+01
drivingCost 1.1038125599999998e+04
brsEnergyCost 0
bssEnergyCost 2.2782001082086857e+01
